
Gurobi 10.0.1 (linux64) logging started Mon May 22 22:58:36 2023

Set parameter LogFile to value "logFiles/N-1L-B/N-1L-13U-10F-23V-120D/basic-05-22-2023, 22-58-H80-P60-O10.log"
Gurobi Optimizer version 10.0.1 build v10.0.1rc0 (linux64)

CPU model: Intel(R) Xeon(R) Gold 5115 CPU @ 2.40GHz, instruction set [SSE2|AVX|AVX2|AVX512]
Thread count: 20 physical cores, 40 logical processors, using up to 20 threads

Optimize a model with 62059 rows, 928399 columns and 5864130 nonzeros
Model fingerprint: 0xf320e167
Variable types: 170821 continuous, 757578 integer (757578 binary)
Coefficient statistics:
  Matrix range     [1e+00, 2e+05]
  Objective range  [4e+01, 3e+07]
  Bounds range     [1e+00, 1e+00]
  RHS range        [1e+00, 2e+06]
Presolve removed 25351 rows and 30368 columns (presolve time = 5s) ...
Presolve removed 26260 rows and 30368 columns (presolve time = 10s) ...
Presolve removed 26260 rows and 30368 columns (presolve time = 15s) ...
Presolve removed 26260 rows and 30368 columns (presolve time = 20s) ...
Presolve removed 26260 rows and 30368 columns (presolve time = 25s) ...
Presolve removed 26260 rows and 30368 columns (presolve time = 30s) ...
Presolve removed 26260 rows and 30368 columns (presolve time = 35s) ...
Presolve removed 26260 rows and 33481 columns (presolve time = 40s) ...
Presolve removed 26292 rows and 33423 columns
Presolve time: 44.96s
Presolved: 35767 rows, 894976 columns, 4727079 nonzeros
Variable types: 163360 continuous, 731616 integer (731616 binary)
Deterministic concurrent LP optimizer: primal simplex, dual simplex, and barrier
Showing barrier log only...

Root barrier log...

Ordering time: 2.36s

Barrier statistics:
 AA' NZ     : 2.486e+06
 Factor NZ  : 9.479e+06 (roughly 450 MB of memory)
 Factor Ops : 1.365e+10 (less than 1 second per iteration)
 Threads    : 17

                  Objective                Residual
Iter       Primal          Dual         Primal    Dual     Compl     Time
   0  -2.16118646e+16  1.44607163e+13  1.30e+09 4.77e+06  8.54e+11    58s
   1  -9.76763696e+15  2.05537928e+13  5.90e+08 5.41e+06  3.91e+11    59s
   2  -4.22370500e+15  2.46623110e+13  2.55e+08 8.73e+05  1.78e+11    59s
   3  -5.78608517e+14  2.06973610e+13  3.50e+07 1.90e+05  2.48e+10    60s
   4  -2.29678218e+13  1.53698637e+13  1.39e+06 4.10e+03  9.98e+08    60s
   5  -8.54339131e+12  1.01965192e+13  5.17e+05 7.59e+02  3.74e+08    61s
   6  -5.74364558e+12  8.15728186e+12  3.47e+05 3.59e+02  2.54e+08    61s
   7  -4.05714560e+12  7.19307398e+12  2.45e+05 1.82e+02  1.81e+08    61s
   8  -8.93923910e+11  6.08853484e+12  5.41e+04 2.46e+01  4.23e+07    62s
   9  -3.52279388e+11  4.85712114e+12  2.14e+04 3.81e+00  1.71e+07    62s
  10  -6.38785432e+10  3.10985797e+12  3.96e+03 1.29e-08  4.10e+06    63s
  11  -3.40694327e+10  1.86036736e+12  2.16e+03 1.28e-08  2.16e+06    63s
  12  -1.65008347e+10  1.38943801e+12  1.09e+03 1.40e-08  1.31e+06    64s
  13  -2.63803763e+09  8.40941619e+11  2.57e+02 1.46e-08  5.79e+05    64s
  14   1.16573224e+08  2.41403061e+11  9.08e+01 1.90e-08  1.64e+05    65s
  15   6.09974397e+08  1.87932976e+11  6.12e+01 1.88e-07  1.24e+05    65s
  16   9.62851380e+08  1.50785815e+11  4.01e+01 1.48e-07  9.64e+04    66s
  17   1.20356960e+09  1.26829528e+11  2.60e+01 1.17e-07  7.84e+04    66s
  18   1.30550626e+09  1.09255730e+11  2.01e+01 1.20e-07  6.67e+04    66s
  19   1.40792197e+09  8.66802032e+10  1.44e+01 1.72e-07  5.23e+04    67s
  20   1.48027616e+09  6.71020988e+10  1.05e+01 1.90e-07  4.03e+04    67s
  21   1.49922102e+09  5.75792344e+10  9.43e+00 3.48e-07  3.47e+04    68s
  22   1.53161806e+09  4.67113856e+10  7.64e+00 2.63e-07  2.82e+04    68s
  23   1.56252926e+09  3.44775598e+10  5.89e+00 2.65e-07  2.09e+04    69s
  24   1.58001450e+09  2.72477832e+10  4.96e+00 2.55e-07  1.67e+04    70s
  25   1.62906807e+09  2.23945044e+10  2.98e+00 2.87e-07  1.31e+04    70s
  26   1.65178555e+09  2.00810520e+10  1.94e+00 2.66e-07  1.13e+04    71s
  27   1.66303814e+09  1.19648569e+10  1.51e+00 3.40e-07  6.42e+03    71s
  28   1.69289963e+09  9.01267643e+09  7.59e-01 3.14e-07  4.38e+03    72s
  29   1.70072889e+09  4.29148442e+09  6.09e-01 3.67e-07  1.58e+03    72s
  30   1.71547613e+09  3.59906150e+09  1.89e-01 4.25e-07  1.09e+03    73s
  31   1.71434653e+09  3.39585617e+09  1.79e-01 3.15e-07  9.70e+02    74s
  32   1.71751709e+09  3.02586248e+09  1.21e-01 3.14e-07  7.49e+02    74s
  33   1.72227415e+09  2.92225389e+09  1.00e-01 3.64e-07  6.85e+02    74s
  34   1.72345913e+09  2.55085170e+09  9.12e-02 4.10e-07  4.74e+02    75s
  35   1.72963601e+09  2.33735857e+09  2.09e-02 4.02e-07  3.42e+02    75s
  36   1.73239307e+09  2.12659205e+09  1.70e-02 3.67e-07  2.22e+02    76s
  37   1.73375075e+09  2.02655006e+09  1.22e-02 3.59e-07  1.65e+02    76s
  38   1.73490000e+09  2.00088372e+09  9.76e-03 3.14e-07  1.49e+02    77s
  39   1.73505861e+09  1.95279371e+09  9.50e-03 3.70e-07  1.22e+02    77s
  40   1.73776164e+09  1.91623600e+09  5.95e-03 3.99e-07  1.00e+02    78s
  41   1.74034702e+09  1.87278693e+09  3.12e-03 4.17e-07  7.42e+01    78s
  42   1.74137704e+09  1.85497284e+09  2.55e-03 5.76e-07  6.36e+01    79s
  43   1.74250742e+09  1.84132816e+09  2.04e-03 5.60e-07  5.53e+01    80s
  44   1.74323012e+09  1.82662735e+09  1.81e-03 6.42e-07  4.67e+01    80s
  45   1.74401019e+09  1.82240330e+09  1.59e-03 4.71e-07  4.39e+01    81s
  46   1.74477184e+09  1.81442420e+09  1.41e-03 6.34e-07  3.90e+01    81s
  47   1.74557478e+09  1.80891464e+09  1.27e-03 6.16e-07  3.55e+01    82s
  48   1.74653678e+09  1.80773949e+09  1.17e-03 7.03e-07  3.43e+01    82s
  49   1.74794771e+09  1.80029289e+09  1.02e-03 5.96e-07  2.93e+01    83s
  50   1.74825111e+09  1.79230890e+09  9.42e-04 6.65e-07  2.47e+01    84s
  51   1.74910571e+09  1.78751971e+09  8.46e-04 1.16e-06  2.15e+01    84s
  52   1.75115267e+09  1.78295250e+09  6.11e-04 7.87e-07  1.78e+01    85s
  53   1.75261117e+09  1.78000808e+09  4.80e-04 9.35e-07  1.53e+01    85s
  54   1.75434216e+09  1.77814284e+09  3.48e-04 7.15e-07  1.33e+01    86s
  55   1.75520883e+09  1.77579238e+09  2.90e-04 1.04e-06  1.15e+01    87s
  56   1.75635914e+09  1.77350622e+09  2.32e-04 9.27e-07  9.60e+00    87s
  57   1.75716622e+09  1.77113984e+09  1.91e-04 9.01e-07  7.82e+00    88s
  58   1.75725950e+09  1.77091907e+09  1.85e-04 1.07e-06  7.65e+00    88s
  59   1.75789283e+09  1.77069346e+09  1.69e-04 1.27e-06  7.17e+00    89s
  60   1.75858538e+09  1.76837185e+09  1.38e-04 9.32e-07  5.48e+00    90s
  61   1.75952121e+09  1.76714232e+09  1.06e-04 1.02e-06  4.27e+00    90s
  62   1.76065534e+09  1.76610693e+09  6.78e-05 6.82e-07  3.05e+00    91s
  63   1.76101201e+09  1.76501954e+09  5.73e-05 8.34e-07  2.24e+00    91s
  64   1.76150977e+09  1.76452323e+09  4.26e-05 7.84e-07  1.69e+00    92s
  65   1.76198549e+09  1.76372467e+09  2.88e-05 8.34e-07  9.75e-01    92s
  66   1.76229321e+09  1.76353985e+09  2.01e-05 9.74e-07  6.99e-01    93s
  67   1.76242244e+09  1.76341662e+09  1.66e-05 1.16e-06  5.58e-01    94s
  68   1.76262065e+09  1.76331849e+09  1.10e-05 1.13e-06  3.92e-01    94s
  69   1.76270384e+09  1.76318745e+09  8.70e-06 9.41e-07  2.72e-01    95s
  70   1.76292771e+09  1.76308722e+09  2.93e-06 8.22e-07  8.96e-02    95s
  71   1.76296046e+09  1.76306323e+09  2.37e-06 6.75e-07  5.78e-02    96s
  72   1.76297371e+09  1.76304992e+09  2.07e-06 7.20e-07  4.29e-02    96s
  73   1.76299356e+09  1.76303794e+09  2.04e-06 8.70e-07  2.50e-02    96s
  74   1.76299808e+09  1.76303762e+09  1.56e-06 1.06e-06  2.23e-02    97s
  75   1.76301406e+09  1.76303593e+09  8.09e-07 1.03e-06  1.23e-02    98s
  76   1.76301659e+09  1.76303364e+09  6.93e-07 1.10e-06  9.61e-03    98s
  77   1.76301701e+09  1.76303309e+09  7.04e-07 1.10e-06  9.07e-03    99s
  78   1.76301742e+09  1.76303286e+09  6.85e-07 1.24e-06  8.71e-03   100s
  79   1.76302490e+09  1.76303249e+09  3.23e-07 8.49e-07  4.28e-03   100s
  80   1.76302796e+09  1.76303235e+09  1.89e-07 9.16e-07  2.48e-03   101s
  81   1.76303135e+09  1.76303191e+09  1.01e-07 1.39e-06  3.17e-04   102s
  82   1.76303184e+09  1.76303189e+09  4.35e-09 7.35e-07  2.72e-05   102s
  83   1.76303187e+09  1.76303188e+09  6.35e-07 1.08e-06  3.02e-06   103s
  84   1.76303188e+09  1.76303188e+09  4.67e-07 9.57e-07  9.14e-09   104s

Barrier solved model in 84 iterations and 103.54 seconds (88.42 work units)
Optimal objective 1.76303188e+09


Root crossover log...

   27843 DPushes remaining with DInf 0.0000000e+00               104s
       0 DPushes remaining with DInf 0.0000000e+00               104s

    1346 PPushes remaining with PInf 1.4852793e-03               105s
       0 PPushes remaining with PInf 0.0000000e+00               105s

  Push phase complete: Pinf 0.0000000e+00, Dinf 6.4115798e+02    105s


Root simplex log...

Iteration    Objective       Primal Inf.    Dual Inf.      Time
   29119    1.7630319e+09   0.000000e+00   6.411580e+02    105s
   29125    1.7630319e+09   0.000000e+00   0.000000e+00    105s
Concurrent spin time: 0.90s

Solved with barrier
   29125    1.7630319e+09   0.000000e+00   0.000000e+00    106s

Root relaxation: objective 1.763032e+09, 29125 iterations, 56.59 seconds (36.53 work units)

    Nodes    |    Current Node    |     Objective Bounds      |     Work
 Expl Unexpl |  Obj  Depth IntInf | Incumbent    BestBd   Gap | It/Node Time

     0     0 1.7630e+09    0  258          - 1.7630e+09      -     -  111s
     0     0 1.7630e+09    0  229          - 1.7630e+09      -     -  158s
     0     0 1.7630e+09    0  230          - 1.7630e+09      -     -  182s
     0     0 1.7629e+09    0  286          - 1.7629e+09      -     -  235s
     0     0 1.7629e+09    0  290          - 1.7629e+09      -     -  261s
     0     0 1.7629e+09    0  282          - 1.7629e+09      -     -  266s
     0     0 1.7629e+09    0  284          - 1.7629e+09      -     -  268s
     0     0 1.7629e+09    0  280          - 1.7629e+09      -     -  307s
     0     0 1.7629e+09    0  274          - 1.7629e+09      -     -  337s
     0     0 1.7629e+09    0  273          - 1.7629e+09      -     -  348s
     0     0 1.7629e+09    0  284          - 1.7629e+09      -     -  357s
     0     0 1.7629e+09    0  286          - 1.7629e+09      -     -  361s
     0     0 1.7629e+09    0  283          - 1.7629e+09      -     -  388s
     0     0 1.7629e+09    0  284          - 1.7629e+09      -     -  390s
     0     0 1.7629e+09    0  266          - 1.7629e+09      -     -  404s
     0     0 1.7629e+09    0  262          - 1.7629e+09      -     -  414s
     0     0 1.7629e+09    0  278          - 1.7629e+09      -     -  424s
     0     0 1.7629e+09    0  280          - 1.7629e+09      -     -  431s
     0     0 1.7629e+09    0  280          - 1.7629e+09      -     -  440s
H    0     0                    1.758745e+09 1.7629e+09  0.24%     -  489s

Cutting planes:
  Cover: 8
  Implied bound: 5
  MIR: 23
  Flow cover: 14
  GUB cover: 1
  Network: 5
  RLT: 1
  Relax-and-lift: 3

Explored 1 nodes (57883 simplex iterations) in 489.74 seconds (356.03 work units)
Thread count was 20 (of 40 available processors)

Solution count 1: 1.75875e+09 

Optimal solution found (tolerance 1.00e-02)
Best objective 1.758745133333e+09, best bound 1.762902415618e+09, gap 0.2364%
Gurobi Optimizer version 10.0.1 build v10.0.1rc0 (linux64)

CPU model: Intel(R) Xeon(R) Gold 5115 CPU @ 2.40GHz, instruction set [SSE2|AVX|AVX2|AVX512]
Thread count: 20 physical cores, 40 logical processors, using up to 20 threads

Optimize a model with 66479 rows, 939235 columns and 5562021 nonzeros
Model fingerprint: 0xc22bb921
Variable types: 1859 continuous, 937376 integer (937376 binary)
Coefficient statistics:
  Matrix range     [1e+00, 2e+05]
  Objective range  [4e+01, 3e+07]
  Bounds range     [1e+00, 3e+05]
  RHS range        [1e+00, 2e+06]
Presolve removed 64151 rows and 921690 columns
Presolve time: 2.22s
Presolved: 2328 rows, 17545 columns, 94243 nonzeros
Variable types: 618 continuous, 16927 integer (16927 binary)
Found heuristic solution: objective 1.444682e+09

Root relaxation: objective 1.773140e+09, 6966 iterations, 0.42 seconds (0.50 work units)

    Nodes    |    Current Node    |     Objective Bounds      |     Work
 Expl Unexpl |  Obj  Depth IntInf | Incumbent    BestBd   Gap | It/Node Time

     0     0 1.7731e+09    0   34 1.4447e+09 1.7731e+09  22.7%     -    3s
H    0     0                    1.764464e+09 1.7731e+09  0.49%     -    5s

Explored 1 nodes (7109 simplex iterations) in 5.22 seconds (3.50 work units)
Thread count was 20 (of 40 available processors)

Solution count 2: 1.76446e+09 1.44468e+09 

Optimal solution found (tolerance 1.00e-02)
Best objective 1.764463632873e+09, best bound 1.773139547363e+09, gap 0.4917%
